c generated by sgen
p cnf 61 132
-2 -3 -4 0
-1 -3 -4 0
-1 -2 -4 0
-1 -2 -3 0
-6 -7 -8 0
-5 -7 -8 0
-5 -6 -8 0
-5 -6 -7 0
-10 -11 -12 0
-9 -11 -12 0
-9 -10 -12 0
-9 -10 -11 0
-14 -15 -16 0
-13 -15 -16 0
-13 -14 -16 0
-13 -14 -15 0
-18 -19 -20 0
-17 -19 -20 0
-17 -18 -20 0
-17 -18 -19 0
-22 -23 -24 0
-21 -23 -24 0
-21 -22 -24 0
-21 -22 -23 0
-26 -27 -28 0
-25 -27 -28 0
-25 -26 -28 0
-25 -26 -27 0
-30 -31 -32 0
-29 -31 -32 0
-29 -30 -32 0
-29 -30 -31 0
-34 -35 -36 0
-33 -35 -36 0
-33 -34 -36 0
-33 -34 -35 0
-38 -39 -40 0
-37 -39 -40 0
-37 -38 -40 0
-37 -38 -39 0
-42 -43 -44 0
-41 -43 -44 0
-41 -42 -44 0
-41 -42 -43 0
-46 -47 -48 0
-45 -47 -48 0
-45 -46 -48 0
-45 -46 -47 0
-50 -51 -52 0
-49 -51 -52 0
-49 -50 -52 0
-49 -50 -51 0
-54 -55 -56 0
-53 -55 -56 0
-53 -54 -56 0
-53 -54 -55 0
-57 -58 -59 0
-57 -58 -60 0
-57 -58 -61 0
-57 -59 -60 0
-57 -59 -61 0
-57 -60 -61 0
-58 -59 -60 0
-58 -59 -61 0
-58 -60 -61 0
-59 -60 -61 0
25 9 8 0
45 9 8 0
45 25 8 0
45 25 9 0
23 42 20 0
10 42 20 0
10 23 20 0
10 23 42 0
18 3 35 0
57 3 35 0
57 18 35 0
57 18 3 0
16 44 54 0
1 44 54 0
1 16 54 0
1 16 44 0
27 43 38 0
59 43 38 0
59 27 38 0
59 27 43 0
33 41 51 0
46 41 51 0
46 33 51 0
46 33 41 0
47 56 21 0
37 56 21 0
37 47 21 0
37 47 56 0
7 31 53 0
58 31 53 0
58 7 53 0
58 7 31 0
49 5 40 0
4 5 40 0
4 49 40 0
4 49 5 0
39 36 30 0
11 36 30 0
11 39 30 0
11 39 36 0
15 48 32 0
17 48 32 0
17 15 32 0
17 15 48 0
29 28 2 0
24 28 2 0
24 29 2 0
24 29 28 0
19 26 55 0
52 26 55 0
52 19 55 0
52 19 26 0
61 34 6 0
14 34 6 0
14 61 6 0
14 61 34 0
60 13 22 0
60 13 12 0
60 13 50 0
60 22 12 0
60 22 50 0
60 12 50 0
13 22 12 0
13 22 50 0
13 12 50 0
22 12 50 0
